
Gurobi 10.0.1 (mac64[arm]) logging started Mon Apr 29 15:57:31 2024

Set parameter LogFile to value "/Users/deniserings/Documents/zib/s-bahn-data/scripts/DeniseMA/processed/BBUP_W/Branching/BBUP_W_other alternatives_subMBP202404291557.log"
Gurobi Optimizer version 10.0.1 build v10.0.1rc0 (mac64[arm])

CPU model: Apple M2
Thread count: 8 physical cores, 8 logical processors, using up to 8 threads

Optimize a model with 12163 rows, 5181 columns and 44768 nonzeros
Model fingerprint: 0x95d205c1
Variable types: 2316 continuous, 2865 integer (59 binary)
Coefficient statistics:
  Matrix range     [1e+00, 2e+02]
  Objective range  [1e+00, 4e+02]
  Bounds range     [1e+00, 2e+02]
  RHS range        [1e+00, 5e+02]

Loaded user MIP start with objective 15083

Presolve removed 5498 rows and 1714 columns
Presolve time: 0.08s
Presolved: 6665 rows, 3467 columns, 25462 nonzeros
Variable types: 1125 continuous, 2342 integer (2342 binary)

Root relaxation: objective 1.268804e+04, 2421 iterations, 0.01 seconds (0.01 work units)

    Nodes    |    Current Node    |     Objective Bounds      |     Work
 Expl Unexpl |  Obj  Depth IntInf | Incumbent    BestBd   Gap | It/Node Time

     0     0 12688.0447    0   88 15083.0000 12688.0447  15.9%     -    0s
     0     0 12732.4565    0  369 15083.0000 12732.4565  15.6%     -    0s
     0     0 12734.0000    0  294 15083.0000 12734.0000  15.6%     -    0s
     0     0 12742.3428    0  404 15083.0000 12742.3428  15.5%     -    0s
     0     0 12742.3428    0  457 15083.0000 12742.3428  15.5%     -    0s
     0     0 12743.4108    0  349 15083.0000 12743.4108  15.5%     -    0s
H    0     0                    15073.000000 12743.4108  15.5%     -    0s
     0     0 12743.4108    0  305 15073.0000 12743.4108  15.5%     -    0s
     0     0 12743.4108    0  167 15073.0000 12743.4108  15.5%     -    0s
     0     0 12743.4108    0  347 15073.0000 12743.4108  15.5%     -    0s
     0     0 12743.7022    0  198 15073.0000 12743.7022  15.5%     -    0s
     0     0 12743.7022    0  324 15073.0000 12743.7022  15.5%     -    0s
H    0     0                    15072.999914 12743.7022  15.5%     -    0s
     0     0 12743.8078    0  145 15072.9999 12743.8078  15.5%     -    0s
     0     0 12743.8078    0  294 15072.9999 12743.8078  15.5%     -    1s
     0     0 12743.8078    0  154 15072.9999 12743.8078  15.5%     -    1s
     0     0 12745.6321    0  291 15072.9999 12745.6321  15.4%     -    1s
     0     0 12745.9789    0  194 15072.9999 12745.9789  15.4%     -    1s
     0     0 12745.9789    0  118 15072.9999 12745.9789  15.4%     -    1s
     0     0 12745.9789    0   91 15072.9999 12745.9789  15.4%     -    1s
     0     0 12745.9789    0  243 15072.9999 12745.9789  15.4%     -    1s
     0     0 12745.9789    0  229 15072.9999 12745.9789  15.4%     -    1s
     0     0 12745.9789    0  259 15072.9999 12745.9789  15.4%     -    1s
     0     0 12754.0778    0  286 15072.9999 12754.0778  15.4%     -    1s
     0     0 12755.0748    0  260 15072.9999 12755.0748  15.4%     -    1s
     0     0 12755.0748    0  244 15072.9999 12755.0748  15.4%     -    1s
     0     0 12755.0748    0  259 15072.9999 12755.0748  15.4%     -    1s
     0     0 12755.0748    0  222 15072.9999 12755.0748  15.4%     -    1s
     0     0 12768.0000    0  263 15072.9999 12768.0000  15.3%     -    1s
     0     0 12768.0000    0  250 15072.9999 12768.0000  15.3%     -    1s
     0     0 12768.0333    0  250 15072.9999 12768.0333  15.3%     -    2s
     0     0 12768.0333    0  271 15072.9999 12768.0333  15.3%     -    2s
     0     0 12768.3860    0  295 15072.9999 12768.3860  15.3%     -    2s
     0     0 12768.4285    0  323 15072.9999 12768.4285  15.3%     -    2s
     0     0 12768.4285    0  318 15072.9999 12768.4285  15.3%     -    2s
     0     0 12768.8641    0  309 15072.9999 12768.8641  15.3%     -    2s
     0     0 12768.8641    0  273 15072.9999 12768.8641  15.3%     -    2s
     0     0 12768.8641    0  321 15072.9999 12768.8641  15.3%     -    2s
H    0     0                    15072.999639 12768.8641  15.3%     -    2s
     0     0 12768.8641    0  298 15072.9996 12768.8641  15.3%     -    2s
     0     0 12768.8641    0  100 15072.9996 12768.8641  15.3%     -    2s
H    0     0                    15072.999355 12768.8641  15.3%     -    2s
     0     0 12768.8641    0  191 15072.9994 12768.8641  15.3%     -    2s
H    0     0                    15068.000000 12768.8641  15.3%     -    2s
     0     0 12768.8641    0  106 15068.0000 12768.8641  15.3%     -    2s
     0     0 12768.8641    0  106 15068.0000 12768.8641  15.3%     -    2s
     0     2 12768.8641    0   80 15068.0000 12768.8641  15.3%     -    2s
H  112   120                    15067.999956 12778.0000  15.2%  85.8    2s
H  154   161                    15063.000000 12778.0000  15.2%  71.0    2s
H  214   214                    14981.000000 12778.0000  14.7%  61.1    3s
H 1015   839                    14980.999948 12778.0000  14.7%  36.3    3s
H 1462  1117                    14978.000000 12778.0000  14.7%  35.6    4s
  1475  1126 12882.0000   21  161 14978.0000 12778.0000  14.7%  35.3    5s
H 1484  1075                    14977.999943 12778.0000  14.7%  35.1    6s
H 1565  1072                    14977.999628 12778.0000  14.7%  51.4    7s
H 1594  1040                    14977.999600 12778.0000  14.7%  51.3    7s
H 1693  1054                    14977.999573 12778.0000  14.7%  50.2    7s
H 1908  1208                    14974.000000 12778.0000  14.7%  48.4    8s
H 1953  1149                    14964.000000 12778.0000  14.6%  48.2    8s
H 3454  1528                    14960.000000 12778.0000  14.6%  40.2    9s
H 3492  1500                    14957.000000 12778.0000  14.6%  40.8    9s
H 3498  1460                    14955.000000 12778.0000  14.6%  40.9    9s
H 3730  1887                    14945.000000 12778.0000  14.5%  41.0    9s
H 3775  1887                    14943.000000 12778.0000  14.5%  40.9    9s
  4106  2424 12778.0000   36  281 14943.0000 12778.0000  14.5%  39.4   10s
H 7016  3917                    14938.000000 12778.0000  14.5%  38.1   12s
  9535  6466 13864.0000   88  108 14938.0000 12778.0000  14.5%  38.3   15s
 15224 10101 12778.0000   42  223 14938.0000 12778.0000  14.5%  40.6   20s
 19800 12851 14640.0000   80   91 14938.0000 12778.0000  14.5%  43.3   25s
 22649 14711 12798.0000   44  264 14938.0000 12778.0000  14.5%  45.4   30s
H26524 16996                    14937.999978 12778.0000  14.5%  47.1   34s
H26670 16996                    14933.000000 12778.0000  14.4%  47.2   34s
 26979 17605 12977.5998   42  331 14933.0000 12778.0000  14.4%  47.4   36s
H28049 17980                    14932.999980 12778.0000  14.4%  48.2   37s
H28193 17980                    14932.999944 12778.0000  14.4%  48.2   37s
 29379 19451 13547.4041   69  126 14932.9999 12778.0000  14.4%  49.1   40s
H29666 19451                    14932.998088 12778.0000  14.4%  49.0   40s
 31048 19452 13498.0000   40  118 14932.9981 12778.0000  14.4%  49.5   50s
 31061 19461 14115.0000   74  301 14932.9981 12778.0000  14.4%  49.5   55s
H31261 18615                    14932.998032 12778.0000  14.4%  50.4   57s
 31830 18921 infeasible   66      14932.9980 12778.0000  14.4%  50.5   60s
 33186 19656 14214.0000   83  115 14932.9980 12778.0000  14.4%  51.0   65s
 35800 21010 12785.8962   45  273 14932.9980 12778.0000  14.4%  52.0   71s
 37467 21025 13531.0020   49  190 14932.9980 12778.0000  14.4%  52.7   75s
 38768 21487 12975.0045   41  306 14932.9980 12778.0000  14.4%  53.7   81s
 39441 22275 14821.5355   64  135 14932.9980 12778.0000  14.4%  54.3   87s
 41125 22035 infeasible   48      14932.9980 12778.0000  14.4%  54.8   92s
 41664 22108 13796.6401   46  339 14932.9980 12778.0000  14.4%  55.7   97s
 42063 22781 12869.0145   36  270 14932.9980 12778.0000  14.4%  56.5  104s
 43278 22748 14499.6953   48  179 14932.9980 12778.0000  14.4%  57.3  111s
 43832 22954 13379.2664   28  279 14932.9980 12778.0000  14.4%  57.8  118s
 44425 22861 12778.0000   36  395 14932.9980 12778.0000  14.4%  58.5  126s
 44582 23319 13044.9900   44  323 14932.9980 12778.0000  14.4%  58.9  132s
 45345 23691 12778.0000   47  390 14932.9980 12778.0000  14.4%  59.6  139s
 46394 23991 12778.0000   39  357 14932.9980 12778.0000  14.4%  60.3  147s
 47420 25107 13130.0000   50  317 14932.9980 12778.0000  14.4%  61.1  155s
 49605 24816 13903.4734   49  208 14932.9980 12778.0000  14.4%  61.9  162s
 50263 25031 13663.8913   61  113 14932.9980 12778.0000  14.4%  62.6  169s
 51027 25318     cutoff   69      14932.9980 12778.0000  14.4%  63.3  175s
 51858 25622 infeasible   67      14932.9980 12778.0000  14.4%  64.2  183s

Cutting planes:
  Learned: 15
  Gomory: 229
  Cover: 740
  Implied bound: 86
  Projected implied bound: 10
  Clique: 66
  MIR: 185
  StrongCG: 104
  Flow cover: 731
  GUB cover: 10
  Inf proof: 11
  Zero half: 8
  Network: 23
  RLT: 38
  Relax-and-lift: 42

Explored 52748 nodes (3472543 simplex iterations) in 183.18 seconds (155.54 work units)
Thread count was 8 (of 8 available processors)

Solution count 10: 14933 14933 14933 ... 14955

Solve interrupted
Best objective 1.493299803175e+04, best bound 1.277800000000e+04, gap 14.4311%

User-callback calls 154772, time in user-callback 0.94 sec

Statistics for modelBBUP_W:
  Linear constraint matrix    : 12163 Constrs, 5181 Vars, 44768 NZs
  Variable types              : 2316 Continuous,
2865 Integer (59 Binary)
  Matrix coefficient range    : [ 1, 200 ]
  Objective coefficient range : [ 1, 384 ]
  Variable bound range        : [ 1, 199 ]
  RHS coefficient range       : [ 1, 549 ]

Gurobi 10.0.1 (mac64[arm]) logging started Mon Apr 29 16:00:35 2024

Set parameter LogFile to value "/Users/deniserings/Documents/zib/s-bahn-data/scripts/DeniseMA/processed/BBUP_W/Branching/BBUP_W_other alternatives_subMBP202404291557.log"
Gurobi Optimizer version 10.0.1 build v10.0.1rc0 (mac64[arm])

CPU model: Apple M2
Thread count: 8 physical cores, 8 logical processors, using up to 8 threads

Optimize a model with 12163 rows, 5181 columns and 44768 nonzeros
Model fingerprint: 0x95d205c1
Variable types: 2316 continuous, 2865 integer (59 binary)
Coefficient statistics:
  Matrix range     [1e+00, 2e+02]
  Objective range  [1e+00, 4e+02]
  Bounds range     [1e+00, 2e+02]
  RHS range        [1e+00, 5e+02]

Loaded user MIP start with objective 15083

Presolve removed 5498 rows and 1714 columns
Presolve time: 0.20s
Presolved: 6665 rows, 3467 columns, 25462 nonzeros
Variable types: 1125 continuous, 2342 integer (2342 binary)

Root relaxation: objective 1.268804e+04, 2421 iterations, 0.02 seconds (0.01 work units)

    Nodes    |    Current Node    |     Objective Bounds      |     Work
 Expl Unexpl |  Obj  Depth IntInf | Incumbent    BestBd   Gap | It/Node Time

     0     0 12688.0447    0   88 15083.0000 12688.0447  15.9%     -    0s
     0     0 12732.4565    0  369 15083.0000 12732.4565  15.6%     -    0s
     0     0 12734.0000    0  294 15083.0000 12734.0000  15.6%     -    0s
     0     0 12742.3428    0  404 15083.0000 12742.3428  15.5%     -    0s
     0     0 12742.3428    0  457 15083.0000 12742.3428  15.5%     -    0s
     0     0 12743.4108    0  349 15083.0000 12743.4108  15.5%     -    0s
H    0     0                    15073.000000 12743.4108  15.5%     -    0s
     0     0 12743.4108    0  305 15073.0000 12743.4108  15.5%     -    0s
     0     0 12743.4108    0  167 15073.0000 12743.4108  15.5%     -    1s
     0     0 12743.4108    0  347 15073.0000 12743.4108  15.5%     -    1s
     0     0 12743.7022    0  198 15073.0000 12743.7022  15.5%     -    1s
     0     0 12743.7022    0  324 15073.0000 12743.7022  15.5%     -    1s
H    0     0                    15072.999914 12743.7022  15.5%     -    1s
     0     0 12743.8078    0  145 15072.9999 12743.8078  15.5%     -    1s
     0     0 12743.8078    0  294 15072.9999 12743.8078  15.5%     -    1s
     0     0 12743.8078    0  154 15072.9999 12743.8078  15.5%     -    2s
     0     0 12745.6321    0  291 15072.9999 12745.6321  15.4%     -    2s
     0     0 12745.9789    0  194 15072.9999 12745.9789  15.4%     -    2s
     0     0 12745.9789    0  118 15072.9999 12745.9789  15.4%     -    2s
     0     0 12745.9789    0   91 15072.9999 12745.9789  15.4%     -    3s
     0     0 12745.9789    0  243 15072.9999 12745.9789  15.4%     -    3s
     0     0 12745.9789    0  229 15072.9999 12745.9789  15.4%     -    3s
     0     0 12745.9789    0  259 15072.9999 12745.9789  15.4%     -    3s
     0     0 12754.0778    0  286 15072.9999 12754.0778  15.4%     -    3s
     0     0 12755.0748    0  260 15072.9999 12755.0748  15.4%     -    3s
     0     0 12755.0748    0  244 15072.9999 12755.0748  15.4%     -    3s
     0     0 12755.0748    0  259 15072.9999 12755.0748  15.4%     -    3s
     0     0 12755.0748    0  222 15072.9999 12755.0748  15.4%     -    3s
     0     0 12768.0000    0  263 15072.9999 12768.0000  15.3%     -    3s
     0     0 12768.0000    0  250 15072.9999 12768.0000  15.3%     -    3s
     0     0 12768.0333    0  250 15072.9999 12768.0333  15.3%     -    3s
     0     0 12768.0333    0  271 15072.9999 12768.0333  15.3%     -    3s
     0     0 12768.3860    0  295 15072.9999 12768.3860  15.3%     -    4s
     0     0 12768.4285    0  323 15072.9999 12768.4285  15.3%     -    4s
     0     0 12768.4285    0  318 15072.9999 12768.4285  15.3%     -    4s
     0     0 12768.8641    0  309 15072.9999 12768.8641  15.3%     -    4s
     0     0 12768.8641    0  273 15072.9999 12768.8641  15.3%     -    4s
     0     0 12768.8641    0  321 15072.9999 12768.8641  15.3%     -    4s
H    0     0                    15072.999639 12768.8641  15.3%     -    4s
     0     0 12768.8641    0  298 15072.9996 12768.8641  15.3%     -    4s
     0     0 12768.8641    0  100 15072.9996 12768.8641  15.3%     -    4s
H    0     0                    15072.999355 12768.8641  15.3%     -    4s
     0     0 12768.8641    0  191 15072.9994 12768.8641  15.3%     -    4s
H    0     0                    15068.000000 12768.8641  15.3%     -    4s
     0     0 12768.8641    0  106 15068.0000 12768.8641  15.3%     -    4s
     0     0 12768.8641    0  106 15068.0000 12768.8641  15.3%     -    4s
     0     2 12768.8641    0   80 15068.0000 12768.8641  15.3%     -    5s
H  112   120                    15067.999956 12778.0000  15.2%  85.8    5s
H  154   161                    15063.000000 12778.0000  15.2%  71.0    5s
H  214   214                    14981.000000 12778.0000  14.7%  61.1    6s
H 1015   839                    14980.999948 12778.0000  14.7%  36.3    8s
H 1462  1117                    14978.000000 12778.0000  14.7%  35.6    8s
  1470  1123 12870.0000   11  257 14978.0000 12778.0000  14.7%  35.4   10s
  1483  1131 12870.0000   14  155 14978.0000 12778.0000  14.7%  35.1   15s
H 1484  1075                    14977.999943 12778.0000  14.7%  35.1   15s
H 1565  1072                    14977.999628 12778.0000  14.7%  51.4   16s
H 1594  1040                    14977.999600 12778.0000  14.7%  51.3   17s
H 1693  1054                    14977.999573 12778.0000  14.7%  50.2   17s
H 1908  1208                    14974.000000 12778.0000  14.7%  48.4   20s
H 1953  1149                    14964.000000 12778.0000  14.6%  48.2   20s
H 3454  1528                    14960.000000 12778.0000  14.6%  40.2   23s
H 3492  1500                    14957.000000 12778.0000  14.6%  40.8   24s
H 3498  1460                    14955.000000 12778.0000  14.6%  40.9   24s
H 3730  1887                    14945.000000 12778.0000  14.5%  41.0   25s
H 3775  1887                    14943.000000 12778.0000  14.5%  40.9   25s
  5311  3643 12823.2110   35  299 14943.0000 12778.0000  14.5%  38.7   31s
H 7016  3917                    14938.000000 12778.0000  14.5%  38.1   34s
  7019  4382 12998.0000   29  190 14938.0000 12778.0000  14.5%  38.1   35s
  9279  5700 12867.0600   64  350 14938.0000 12778.0000  14.5%  37.8   40s
 11090  7264 14472.3158   92   58 14938.0000 12778.0000  14.5%  39.6   46s
 11903  7697 infeasible   45      14938.0000 12778.0000  14.5%  39.2   50s
 12686  8029 12778.0000   55  291 14938.0000 12778.0000  14.5%  39.9   56s
 13542  9455 12990.0000   27  185 14938.0000 12778.0000  14.5%  40.7   60s
 16203 10484 infeasible  114      14938.0000 12778.0000  14.5%  40.5   66s
 16727 12179 13019.7367   36  200 14938.0000 12778.0000  14.5%  41.3   70s
 19800 12851 14640.0000   80   91 14938.0000 12778.0000  14.5%  43.3   75s
 20566 13499 12986.0000   35  242 14938.0000 12778.0000  14.5%  44.1   81s
 21272 14284 14726.1573   68  106 14938.0000 12778.0000  14.5%  44.6   85s
 23326 16360 13089.0000   41  181 14938.0000 12778.0000  14.5%  46.1   96s
 26064 16635 infeasible   32      14938.0000 12778.0000  14.5%  46.4  101s
H26524 16996                    14937.999978 12778.0000  14.5%  47.1  104s
H26670 16996                    14933.000000 12778.0000  14.4%  47.2  104s
 26979 17605 12977.5998   42  331 14933.0000 12778.0000  14.4%  47.4  109s
 27926 17980 13583.4800   53  146 14933.0000 12778.0000  14.4%  48.2  113s
H28049 17980                    14932.999980 12778.0000  14.4%  48.2  113s
H28193 17980                    14932.999944 12778.0000  14.4%  48.2  113s
 28541 18509 infeasible   45      14932.9999 12778.0000  14.4%  48.2  116s
 29379 19451 13547.4041   69  126 14932.9999 12778.0000  14.4%  49.1  120s
H29666 19451                    14932.998088 12778.0000  14.4%  49.0  120s
 31048 19452 13498.0000   40  118 14932.9981 12778.0000  14.4%  49.5  138s
 31055 19457 13360.0000   60  357 14932.9981 12778.0000  14.4%  49.5  140s
 31060 19460 13066.0000   28  205 14932.9981 12778.0000  14.4%  49.5  146s
 31067 19470 12778.0000   23  165 14932.9981 12778.0000  14.4%  50.1  150s
H31261 18615                    14932.998032 12778.0000  14.4%  50.4  151s
 31742 18870 12963.0800   63  194 14932.9980 12778.0000  14.4%  50.5  155s
 32395 19130 infeasible  112      14932.9980 12778.0000  14.4%  50.6  160s
 33186 19656 14214.0000   83  115 14932.9980 12778.0000  14.4%  51.0  166s
 34045 19901 12778.4472   44  272 14932.9980 12778.0000  14.4%  51.3  170s
 35076 20317 12924.0000   45  310 14932.9980 12778.0000  14.4%  51.8  175s
 37209 20703 12778.0000   38  256 14932.9980 12778.0000  14.4%  51.9  182s

Cutting planes:
  Learned: 12
  Gomory: 151
  Cover: 461
  Implied bound: 55
  Projected implied bound: 6
  Clique: 51
  MIR: 105
  StrongCG: 87
  Flow cover: 398
  GUB cover: 3
  Inf proof: 9
  Zero half: 5
  Network: 23
  RLT: 19
  Relax-and-lift: 27

Explored 37467 nodes (2006535 simplex iterations) in 182.95 seconds (101.88 work units)
Thread count was 8 (of 8 available processors)

Solution count 10: 14933 14933 14933 ... 14955

Solve interrupted
Best objective 1.493299803175e+04, best bound 1.277800000000e+04, gap 14.4311%

User-callback calls 122173, time in user-callback 0.97 sec

Statistics for modelBBUP_W:
  Linear constraint matrix    : 12163 Constrs, 5181 Vars, 44768 NZs
  Variable types              : 2316 Continuous,
2865 Integer (59 Binary)
  Matrix coefficient range    : [ 1, 200 ]
  Objective coefficient range : [ 1, 384 ]
  Variable bound range        : [ 1, 199 ]
  RHS coefficient range       : [ 1, 549 ]
